Cu fcc V/V0=1.2
1.0
3.8202575562114873 0.0 0.0
0.0 3.8202575562114873 0.0
0.0 0.0 3.8202575562114873
Cu
4
Direct
0.0 0.0 0.0
0.0 0.5 0.5
0.5 0.0 0.5
0.5 0.5 0.0
