&GLOBAL
  PROJECT klimes_Na_GFN1_v1_3600
  RUN_TYPE ENERGY
  PRINT_LEVEL LOW
&END GLOBAL

&FORCE_EVAL
  METHOD Quickstep
  &DFT
    &QS
      EPS_DEFAULT 1.0E-12
      METHOD xTB
      &XTB
        GFN_TYPE TBLITE
        SCC_MIXER TBLITE
        &TBLITE
          METHOD GFN1
          ACCURACY 0.05
        &END TBLITE
        &TBLITE_MIXER
          ITERATIONS 500
          MEMORY 250
          DAMPING 0.40000000
        &END TBLITE_MIXER
      &END XTB
    &END QS
    &KPOINTS
      SCHEME MACDONALD 16 16 16 0.0 0.0 0.0
      FULL_GRID T
    &END KPOINTS
    &SCF
      EPS_SCF 1.0E-9
      MAX_SCF 500
      SCF_GUESS MOPAC
      ADDED_MOS -1 -1
      &SMEAR ON
        METHOD FERMI_DIRAC
        ELECTRONIC_TEMPERATURE [K] 300.0
      &END SMEAR
      &PRINT
        &RESTART OFF
        &END RESTART
      &END PRINT
    &END SCF
  &END DFT
  &SUBSYS
    &CELL
      PERIODIC XYZ
      A 4.66439225218726 0.00000000000000 0.00000000000000
      B 0.00000000000000 4.66439225218726 0.00000000000000
      C 0.00000000000000 0.00000000000000 4.66439225218726
    &END CELL
    &COORD
      SCALED
      Na 0.00000000000000 0.00000000000000 0.00000000000000
      Na 0.50000000000000 0.50000000000000 0.50000000000000
    &END COORD
  &END SUBSYS
&END FORCE_EVAL
