Cu fcc V/V0=1.0
1.0
3.595 0.0 0.0
0.0 3.595 0.0
0.0 0.0 3.595
Cu
4
Direct
0.0 0.0 0.0
0.0 0.5 0.5
0.5 0.0 0.5
0.5 0.5 0.0
