Cu fcc V/V0=0.8
1.0
3.3373023713675884 0.0 0.0
0.0 3.3373023713675884 0.0
0.0 0.0 3.3373023713675884
Cu
4
Direct
0.0 0.0 0.0
0.0 0.5 0.5
0.5 0.0 0.5
0.5 0.5 0.0
